p cnf 10 44
9 -8 2 -4 0
5 -1 -10 0
-2 6 -10 8 0
-9 5 -10 0
7 -10 2 0
-5 6 -8 -9 -4 0
7 -6 -2 4 -3 -5 -9 -10 8 -1 0
-3 -7 -6 0
2 -5 0
-9 8 6 1 -2 0
-3 -7 -6 0
-9 -3 0
4 1 0
5 -2 6 1 0
6 -1 -8 -4 -9 -3 -7 -10 2 -5 0
8 4 -7 0
-2 7 0
9 1 -7 8 0
-6 9 8 0
9 -2 -7 4 8 10 0
8 3 1 0
-5 -1 0
-10 -3 0
5 -9 -2 0
9 -2 0
7 -6 0
10 -1 6 -8 -4 0
5 8 0
-1 4 6 -7 -3 -10 0
9 -4 -5 6 0
-9 1 5 0
-3 -10 -7 -1 -6 0
4 8 -7 0
-5 -2 3 10 -8 0
-5 7 9 0
-3 4 10 0
10 5 0
-2 7 1 0
4 -7 -8 0
7 9 -2 0
-10 1 6 9 3 0
1 10 0
-1 -4 0
4 -10 -6 0
